p edge 30
e 0 1
e 0 3
e 0 4
e 0 6
e 0 19
e 0 25
e 1 2
e 1 3
e 1 5
e 1 10
e 1 25
e 2 3
e 4 12
e 4 13
e 4 19
e 4 20
e 4 25
e 4 26
e 4 27
e 5 9
e 6 8
e 6 19
e 7 17
e 7 19
e 8 17
e 8 19
e 10 25
e 11 12
e 11 13
e 11 15
e 12 13
e 12 27
e 13 20
e 13 25
e 14 29
e 15 18
e 15 21
e 15 22
e 15 24
e 15 29
e 16 21
e 16 23
e 17 19
e 18 21
e 19 26
e 19 27
e 19 28
e 20 25
e 21 22
e 21 23
e 22 23
e 24 29
e 26 27
e 26 28
e 27 28
c k 1
